nNurses = 135;
nHours = 30;
minHours = 4;
maxHours = 11;
maxConsec = 9;
maxPresence = 7;
demand = [34, 38, 39, 35, 39, 36, 34, 29, 32, 35, 36, 34, 29, 25, 21, 20, 25, 21, 25, 29, 24, 24, 23, 27, 28, 32, 34, 32, 34, 30];
